
Gurobi 8.1.1 (win64) logging started 11/26/19 20:02:30

Changed value of parameter LogFile to logs/miss/qp/miss-07-30-1.log
   Prev: gurobi.log  Default: 
Changed value of parameter LogToConsole to 0
   Prev: 1  Min: 0  Max: 1  Default: 1
Changed value of parameter TimeLimit to 3600.0
   Prev: 1e+100  Min: 0.0  Max: 1e+100  Default: 1e+100
Optimize a model with 1 rows, 458 columns and 1 nonzeros
Model has 14 quadratic constraints
Variable types: 0 continuous, 458 integer (458 binary)
Coefficient statistics:
  Matrix range     [1e+00, 1e+00]
  QMatrix range    [1e+00, 1e+00]
  Objective range  [1e+00, 1e+00]
  Bounds range     [1e+00, 1e+00]
  RHS range        [1e+00, 1e+00]
  QRHS range       [1e+00, 1e+00]
Found heuristic solution: objective 458.0000000
Presolve removed 1 rows and 1 columns
Presolve time: 0.56s
Presolved: 0 rows, 457 columns, 0 nonzeros
Variable types: 0 continuous, 457 integer (457 binary)

Root relaxation: objective 1.000000e+00, 0 iterations, 0.03 seconds

    Nodes    |    Current Node    |     Objective Bounds      |     Work
 Expl Unexpl |  Obj  Depth IntInf | Incumbent    BestBd   Gap | It/Node Time

     0     0    2.00000    0    2  458.00000    2.00000   100%     -    1s
H    0     0                      13.0000000    2.00000  84.6%     -    2s
     0     0    2.00000    0    2   13.00000    2.00000  84.6%     -    3s
     0     2    2.00000    0    2   13.00000    2.00000  84.6%     -    3s
H   29    16                      11.0000000    2.00000  81.8%   1.1    4s
    74    36    2.00000   16    2   11.00000    2.00000  81.8%   1.1    5s
H  188    77                       9.0000000    2.00000  77.8%   1.0    7s
   310   135    2.00000   73    -    9.00000    2.00000  77.8%   1.0   10s
   454   204    2.00000  113    -    9.00000    2.00000  77.8%   1.0   15s
   576   267    2.00000  139    2    9.00000    2.00000  77.8%   1.0   21s
   664   311    2.00000  159    2    9.00000    2.00000  77.8%   1.0   27s
   738   347    2.00000  177    -    9.00000    2.00000  77.8%   1.0   31s
   808   379    2.00000  194    -    9.00000    2.00000  77.8%   1.0   36s
   895   425    2.00000  216    2    9.00000    2.00000  77.8%   1.0   41s
   958   459    2.00000  228    -    9.00000    2.00000  77.8%   1.0   47s
   995   475    2.00000  237    2    9.00000    2.00000  77.8%   1.0   51s
  1085   516    2.00000  261    2    9.00000    2.00000  77.8%   1.0   57s
  1119   541    2.00000  267    -    9.00000    2.00000  77.8%   1.0   61s
  1217   581    2.00000  293    -    9.00000    2.00000  77.8%   1.0   67s
  1244   606    2.00000  296    -    9.00000    2.00000  77.8%   1.0   71s
  1295   612    2.00000  311    2    9.00000    2.00000  77.8%   1.0   75s
H 1319   624                       8.0000000    2.00000  75.0%   1.0   75s
  1411   623    3.16667  323    3    8.00000    2.00000  75.0%   1.0   83s
  1473   660    4.00000  336    -    8.00000    2.00000  75.0%   1.0   89s
  1535   667     cutoff  347         8.00000    2.00000  75.0%   1.1   95s
  1589   650    6.00000  349    -    8.00000    2.00000  75.0%   1.1  101s
  1634   680    6.00000  349    -    8.00000    2.00000  75.0%   1.1  107s
  1656   662    6.00000  349    -    8.00000    2.00000  75.0%   1.1  115s
  1703   650    6.00000  349    -    8.00000    2.00000  75.0%   1.1  124s
  1778   668    3.00000  269    2    8.00000    2.00000  75.0%   1.1  135s
  1877   698    6.00000  349    -    8.00000    2.00000  75.0%   1.1  146s
  1955   714    6.00000  349    -    8.00000    2.00000  75.0%   1.1  160s
  2035   728    6.00000  349    -    8.00000    3.00000  62.5%   1.1  171s
  2103   740    6.00000  349    -    8.00000    3.00000  62.5%   1.1  186s
  2188   749    6.00000  349    -    8.00000    3.00000  62.5%   1.2  199s
  2254   767    6.00000  349    -    8.00000    3.00000  62.5%   1.2  216s
  2357   781    6.00000  349    -    8.00000    3.00000  62.5%   1.2  232s
  2425   812    4.00000  117    2    8.00000    3.00000  62.5%   1.2  250s
  2573   887    4.00000  331    2    8.00000    3.00000  62.5%   1.2  273s
  2708   930    4.16667  333    3    8.00000    3.00000  62.5%   1.2  294s
  2822   982    6.00000  345    -    8.00000    3.00000  62.5%   1.2  315s
  2946  1039     cutoff  347         8.00000    3.00000  62.5%   1.2  338s
  3088  1086    6.00000  345    -    8.00000    3.00000  62.5%   1.2  363s
  3201  1108    7.00000  347    2    8.00000    3.00000  62.5%   1.2  389s
  3301  1214    4.00000  173    -    8.00000    3.00000  62.5%   1.2  390s
  3308  1137     cutoff  348         8.00000    3.00000  62.5%   1.2  417s
  3433  1166    6.00000  345    -    8.00000    3.00000  62.5%   1.2  445s
  3537  1205    6.00000  345    -    8.00000    3.00000  62.5%   1.2  479s
  3540  1207    4.00000   87    -    8.00000    3.00000  62.5%   1.2  480s
  3659  1236    3.00000  128    2    8.00000    3.00000  62.5%   1.2  511s
  3788  1292    3.00000  315    2    8.00000    3.00000  62.5%   1.2  545s
  3974  1402    3.00000  316    2    8.00000    3.00000  62.5%   1.2  575s
  4069  1476    3.00000  319    2    8.00000    3.00000  62.5%   1.2  605s
  4286  1557    3.00000  320    2    8.00000    3.00000  62.5%   1.2  642s
  4486  1793    3.00000  133    2    8.00000    3.00000  62.5%   1.2  829s
  4488  1794    4.00000   86 6018    8.00000    3.00000  62.5%   1.2 1033s
  4490  1797    3.00000  231    2    8.00000    3.00000  62.5%  13.0 1371s
  4492  1798    3.00000  117 5968    8.00000    3.00000  62.5%  13.0 1545s
  4493  1799    3.00000  185 4634    8.00000    3.00000  62.5%  13.0 1794s
  4494  1800    4.00000   27 3992    8.00000    3.00000  62.5%  13.0 2021s
  4495  1800    3.00000  301 3559    8.00000    3.00000  62.5%  13.0 3029s

Cutting planes:
  Gomory: 1
  Zero half: 8

Explored 4495 nodes (319094 simplex iterations) in 3600.57 seconds
Thread count was 4 (of 4 available processors)

Solution count 5: 8 9 11 ... 458

Time limit reached
Best objective 8.000000000000e+00, best bound 3.000000000000e+00, gap 62.5000%
Warning: Q constraint 0 doesn't have a name
